(set-logic ALL)
(declare-const z_random0_0 String)
(declare-const z_random0_1 String)
(declare-const z_random0_2 String)
(declare-const z_random0_3 String)
(declare-const z_random0_4 String)
(declare-const z_random0_5 String)
(declare-const z_random0_6 String)
(declare-const z_random0_7 String)
(declare-const z_random0_8 String)
(declare-const z_random0_9 String)
(declare-const z_random0_10 String)
(declare-const z_random0_11 String)
(declare-const z_random0_12 String)
(declare-const z_random0_13 String)
(declare-const z_random0_14 String)
(declare-const z_random0_15 String)
(declare-const z_random0_16 String)
(declare-const z_random0_17 String)
(declare-const z_random0_18 String)
(declare-const z_random0_19 String)
(declare-const z_random0_20 String)
(declare-const z_random0_21 String)
(declare-const z_random0_22 String)
(declare-const z_random0_23 String)
(declare-const z_random0_24 String)
(declare-const z_random0_25 String)
(declare-const z_random0_26 String)
(declare-const z_random0_27 String)
(declare-const z_random0_28 String)
(declare-const z_random1_0 String)
(declare-const z_random1_1 String)
(declare-const z_random1_2 String)
(declare-const z_random1_3 String)
(declare-const z_random1_4 String)
(declare-const z_random1_5 String)
(declare-const z_random1_6 String)
(declare-const z_random1_7 String)
(declare-const z_random1_8 String)
(declare-const z_random1_9 String)
(declare-const z_random1_10 String)
(declare-const z_random1_11 String)
(declare-fun seed0_x () String)
(declare-fun seed1_x () String)
(assert (and (and (not (= (str.in_re (str.substr z_random1_11 0 (str.len seed0_x)) (re.++ (re.* re.allchar ) re.allchar  (re.* re.allchar ) (str.to_re (str.++ "A" (str.substr z_random1_3 0 (str.len (str.++ "A" "A"))))) (re.* re.allchar ) (str.to_re "C") (re.* re.allchar ))) (str.in_re (str.substr z_random1_5 0 (str.len seed0_x)) (re.++ (re.* re.allchar ) re.allchar  (re.* re.allchar ) re.allchar  (re.* re.allchar ) (str.to_re (str.++ "C" (str.++ "C" (str.substr z_random1_9 0 (str.len (str.++ "B" "C")))))) (re.* re.allchar ))))) (not (= (str.in_re (str.substr z_random1_7 0 (str.len seed0_x)) (re.++ (re.* re.allchar ) re.allchar  (re.* re.allchar ) (str.to_re (str.++ "A" (str.++ "A" (str.substr z_random1_4 0 (str.len (str.++ "A" "C")))))) (re.* re.allchar ) re.allchar  (re.* re.allchar ))) (str.in_re (str.substr z_random1_10 0 (str.len seed0_x)) (re.++ (re.* re.allchar ) re.allchar  (re.* re.allchar ) (str.to_re (str.++ "A" (str.++ "A" (str.substr z_random1_6 0 (str.len (str.++ "A" "A")))))) (re.* re.allchar ) re.allchar  (re.* re.allchar )))))) (and (not (= (str.in_re (str.substr z_random1_5 (str.indexof z_random1_5 seed1_x (str.len seed0_x)) (str.len seed1_x)) (re.++ (re.* re.allchar ) re.allchar  (re.* re.allchar ) (str.to_re (str.++ "B" (str.++ "A" (str.substr z_random0_26 (str.len (str.++ "B" "C")) (str.len (str.++ "B" "C")))))) (re.* re.allchar ) re.allchar  (re.* re.allchar ))) (str.in_re (str.substr z_random1_9 (str.indexof z_random1_9 seed1_x (str.len (str.++ "B" "C"))) (str.len seed1_x)) (re.++ (re.* re.allchar ) re.allchar  (re.* re.allchar ) (str.to_re (str.++ "B" (str.substr z_random1_1 (str.indexof z_random1_1 (str.++ "A" "B") (str.len (str.++ "A" "C"))) (str.len (str.++ "A" "B"))))) (re.* re.allchar ) (str.to_re "C") (re.* re.allchar ))))) (not (= (str.in_re (str.substr z_random1_11 (str.indexof z_random1_11 seed1_x (str.len seed0_x)) (str.len seed1_x)) (re.++ (re.* re.allchar ) re.allchar  (re.* re.allchar ) re.allchar  (re.* re.allchar ) (str.to_re (str.++ "A" (str.++ "B" (str.substr z_random1_10 (str.indexof z_random1_10 (str.++ "B" "C") (str.len seed0_x)) (str.len (str.++ "B" "C")))))) (re.* re.allchar ))) (str.in_re (str.substr z_random1_6 (str.indexof z_random1_6 seed1_x (str.len (str.++ "A" "A"))) (str.len seed1_x)) (re.++ (re.* re.allchar ) re.allchar  (re.* re.allchar ) re.allchar  (re.* re.allchar ) (re.inter re.allchar  (str.to_re "")) (re.* re.allchar ))))))))
(check-sat)
(exit)